
Log started (V11.0.0) Wed Apr 16 14:02:23 2008

Tried aggregator 1 time.
Reduced MIP has 110 rows, 1001 columns, and 2010 nonzeros.
Presolve time =    0.02 sec.
Clique table members: 100.
MIP emphasis: balance optimality and feasibility.
MIP search method: dynamic search.
Parallel mode: none, using 1 thread.
Root relaxation solution time =    0.02 sec.

        Nodes                                         Cuts/
   Node  Left     Objective  IInf  Best Integer     Best Node    ItCnt     Gap

*     0+    0                        14956.0000     1102.7310      199   92.63%
*     0+    0                         1124.0000     1102.7310      199    1.89%
      0     0     1103.1103    22     1124.0000      Fract: 7      214    1.86%
*     0+    0                         1116.0000     1103.1103      214    1.15%
      0     0     1103.4043    34     1116.0000       Cuts: 9      235    1.13%
*     0+    0                         1115.0000     1103.4043      235    1.04%
      0     0     1103.6975    36     1115.0000       Cuts: 7      249    1.01%
*     0+    0                         1113.0000     1103.6975      249    0.84%
      0     0     1103.7977    40     1113.0000       Cuts: 3      259    0.83%
      0     0     1103.8963    39     1113.0000    MIRcuts: 3      278    0.82%
      0     0     1103.9246    45     1113.0000       Cuts: 5      286    0.82%
      0     0     1103.9985    47     1113.0000       Cuts: 3      298    0.81%
*     0+    0                         1111.0000     1103.9985      298    0.63%
*     0+    0                         1110.0000     1103.9985      298    0.54%

Repeating presolve.
Tried aggregator 1 time.
MIP Presolve eliminated 0 rows and 274 columns.
Reduced MIP has 110 rows, 727 columns, and 1462 nonzeros.
Tried aggregator 1 time.
Represolve time =    0.02 sec.
Clique table members: 100.
MIP emphasis: balance optimality and feasibility.
MIP search method: dynamic search.
Parallel mode: none, using 1 thread.
Root relaxation solution time =    0.01 sec.

        Nodes                                         Cuts/
   Node  Left     Objective  IInf  Best Integer     Best Node    ItCnt     Gap

      0     0     1104.0000    48     1110.0000     1104.0000      254    0.54%
      0     2     1104.0000    48     1110.0000     1104.0000      254    0.54%
    100    71     1105.4549    55     1110.0000     1104.1244     1770    0.53%
    200   124     1108.0000    28     1110.0000     1105.0000     6015    0.45%
*   250+  128                         1109.0000     1105.0000     7767    0.36%
    300   174     1107.4038    39     1109.0000     1105.0000     9317    0.36%
    400   208     1107.0000    67     1109.0000     1105.0000    17024    0.36%
    500   277     1108.0000    15     1109.0000     1106.0000    21654    0.27%
    600   265     1107.0000    31     1109.0000     1106.0000    24676    0.27%
    700   252     1107.0000    69     1109.0000     1106.0000    29156    0.27%
    800   249     1107.0000    33     1109.0000     1106.0000    33060    0.27%
    900   266     1108.0000    50     1109.0000     1106.0000    38569    0.27%
   1000   339    infeasible           1109.0000     1106.0000    43792    0.27%
Elapsed time =   8.75 sec. (tree size =  0.11 MB, solutions = 8)
   1100   401     1108.0000    65     1109.0000     1106.0000    52033    0.27%
*  1171+  188                         1108.0000     1106.0000    58090    0.18%
   1200   215     1106.0000    72     1108.0000     1106.0000    59983    0.18%
   1300   286     1107.0000    70     1108.0000     1106.0000    64973    0.18%
   1400   336     1107.0000    77     1108.0000     1106.0000    76253    0.18%
   1500   377    infeasible           1108.0000     1106.0000    86937    0.18%
   1600   447     1107.0000    24     1108.0000     1107.0000    93490    0.09%
   1700   483    infeasible           1108.0000     1107.0000   105156    0.09%
   1800   503     1107.0000    24     1108.0000     1107.0000   118909    0.09%
   1900   497    infeasible           1108.0000     1107.0000   133402    0.09%
   2000   511    infeasible           1108.0000     1107.0000   146621    0.09%
Elapsed time =  23.19 sec. (tree size =  0.19 MB, solutions = 9)
   2100   495    infeasible           1108.0000     1107.0000   163339    0.09%
   2200   509     1107.0000    19     1108.0000     1107.0000   178721    0.09%
   2300   505     1107.0000    69     1108.0000     1107.0000   195574    0.09%
   2400   501    infeasible           1108.0000     1107.0000   213323    0.09%
   2500   451    infeasible           1108.0000     1107.0000   232760    0.09%
   2600   451    infeasible           1108.0000     1107.0000   251531    0.09%
   2700   389    infeasible           1108.0000     1107.0000   276560    0.09%
   2800   393    infeasible           1108.0000     1107.0000   296788    0.09%
   2900   413     1107.0000    40     1108.0000     1107.0000   313626    0.09%
   3000   383    infeasible           1108.0000     1107.0000   335141    0.09%
Elapsed time =  52.97 sec. (tree size =  0.15 MB, solutions = 9)
   3100   389    infeasible           1108.0000     1107.0000   354465    0.09%
   3200   345     1107.0000    44     1108.0000     1107.0000   381196    0.09%
   3300   327    infeasible           1108.0000     1107.0000   405397    0.09%
   3400   247        cutoff           1108.0000     1107.0000   438608    0.09%
   3500   223    infeasible           1108.0000     1107.0000   464362    0.09%
   3600   169    infeasible           1108.0000     1107.0000   490984    0.09%
   3700   129     1107.0000    55     1108.0000     1107.0000   515918    0.09%
   3800    87    infeasible           1108.0000     1107.0000   545556    0.09%
   3900    31    infeasible           1108.0000     1107.0000   575048    0.09%

Cover cuts applied:  468
Mixed integer rounding cuts applied:  28
Gomory fractional cuts applied:  27

Solution pool: 9 solutions saved.

MIP - Integer optimal solution:  Objective = 1.1080000000e+003
Solution time =   99.45 sec.  Iterations = 588587  Nodes = 3946


Incumbent solution
Variable Name           Solution Value
Cmax                       1108.000000
X_1_10                        1.000000
X_2_9                         1.000000
X_3_7                         1.000000
X_4_6                         1.000000
X_5_6                         1.000000
X_6_3                         1.000000
X_7_10                        1.000000
X_8_9                         1.000000
X_9_8                         1.000000
X_10_2                        1.000000
X_11_1                        1.000000
X_12_2                        1.000000
X_13_1                        1.000000
X_14_8                        1.000000
X_15_1                        1.000000
X_16_3                        1.000000
X_17_5                        1.000000
X_18_4                        1.000000
X_19_3                        1.000000
X_20_8                        1.000000
X_21_2                        1.000000
X_22_4                        1.000000
X_23_1                        1.000000
X_24_10                       1.000000
X_25_2                        1.000000
X_26_9                        1.000000
X_27_3                        1.000000
X_28_5                        1.000000
X_29_8                        1.000000
X_30_4                        1.000000
X_31_7                        1.000000
X_32_1                        1.000000
X_33_1                        1.000000
X_34_4                        1.000000
X_35_2                        1.000000
X_36_2                        1.000000
X_37_3                        1.000000
X_38_5                        1.000000
X_39_5                        1.000000
X_40_10                       1.000000
X_41_4                        1.000000
X_42_1                        1.000000
X_43_9                        1.000000
X_44_2                        1.000000
X_45_8                        1.000000
X_46_5                        1.000000
X_47_2                        1.000000
X_48_10                       1.000000
X_49_4                        1.000000
X_50_8                        1.000000
X_51_9                        1.000000
X_52_7                        1.000000
X_53_6                        1.000000
X_54_10                       1.000000
X_55_7                        1.000000
X_56_9                        1.000000
X_57_3                        1.000000
X_58_7                        1.000000
X_59_9                        1.000000
X_60_6                        1.000000
X_61_1                        1.000000
X_62_10                       1.000000
X_63_6                        1.000000
X_64_6                        1.000000
X_65_9                        1.000000
X_66_4                        1.000000
X_67_3                        1.000000
X_68_7                        1.000000
X_69_7                        1.000000
X_70_3                        1.000000
X_71_10                       1.000000
X_72_4                        1.000000
X_73_6                        1.000000
X_74_8                        1.000000
X_75_5                        1.000000
X_76_10                       1.000000
X_77_1                        1.000000
X_78_4                        1.000000
X_79_10                       1.000000
X_80_2                        1.000000
X_81_3                        1.000000
X_82_7                        1.000000
X_83_5                        1.000000
X_84_6                        1.000000
X_85_9                        1.000000
X_86_5                        1.000000
X_87_8                        1.000000
X_88_3                        1.000000
X_89_2                        1.000000
X_90_6                        1.000000
X_91_5                        1.000000
X_92_8                        1.000000
X_93_8                        1.000000
X_94_7                        1.000000
X_95_4                        1.000000
X_96_1                        1.000000
X_97_5                        1.000000
X_98_6                        1.000000
X_99_9                        1.000000
X_100_7                       1.000000
All other variables in the range 1-1001 are 0.
